65
77
40
15
10
68
39
74
21
89
1
18
3
99
46
63
66
22
70
4
64
92
91
84
56
88
23
29
49
75
7
86
20
25
55
16
71
30
41
93
47
69
58
80
9
33
60
72
79
2
51
19
61
17
8
48
83
81
45
28
85
6
0
37
12
5
38
31
53
78
90
73
94
14
36
32
24
54
50
35
52
34
76
13
97
26
82
43
44
42
98
57
87
67
59
27
62
96
95
11
